c description: Random 3-CNF over 15 variables and 110 clauses
c generator: CNFgen (0.9.0)
c copyright: (C) 2012-2020 Massimo Lauria <massimo.lauria@uniroma1.it>
c url: https://massimolauria.net/cnfgen
c
p cnf 15 110
7 8 9 0
12 14 15 0
-8 -9 15 0
6 11 13 0
-11 -12 15 0
6 -9 -14 0
5 8 -14 0
5 6 13 0
-6 9 14 0
4 12 -15 0
-4 13 -15 0
-1 3 15 0
4 -8 10 0
-1 5 -15 0
-6 8 14 0
-1 -4 13 0
9 -10 -13 0
1 -3 -12 0
3 -5 14 0
1 -4 7 0
-7 -11 15 0
-2 3 10 0
-6 8 -11 0
-5 -11 12 0
-8 -9 -12 0
4 -5 -15 0
-6 -10 13 0
-3 9 14 0
-1 -12 -13 0
2 -3 -5 0
1 3 -12 0
8 -9 14 0
-5 6 12 0
-2 11 15 0
1 -5 12 0
-6 -9 -12 0
-3 -6 12 0
2 -5 15 0
-2 5 7 0
-5 -7 -9 0
2 3 15 0
-10 11 14 0
-4 7 8 0
-4 -6 14 0
-5 12 -15 0
7 -9 -11 0
1 2 14 0
-3 -7 -10 0
-9 -11 -15 0
-1 6 -15 0
1 4 -10 0
-1 -14 -15 0
3 8 -14 0
-1 7 10 0
1 11 14 0
-3 -7 8 0
-3 10 11 0
-4 10 -13 0
-3 5 -10 0
2 13 14 0
-1 8 15 0
-1 -8 15 0
-6 -10 11 0
-2 -8 -15 0
1 -5 6 0
-4 10 -11 0
3 -14 -15 0
3 10 -14 0
-6 12 -15 0
-10 -12 -13 0
2 6 11 0
5 -9 10 0
-1 5 6 0
2 -8 12 0
4 9 11 0
-5 9 -12 0
6 -9 11 0
6 11 12 0
-7 9 -15 0
-10 12 -13 0
11 -12 14 0
-2 3 8 0
3 -5 -9 0
7 -9 15 0
-1 4 -14 0
-4 -6 8 0
-3 12 13 0
3 -7 12 0
4 -5 15 0
1 -10 11 0
-1 -2 -15 0
1 -6 -15 0
5 7 12 0
1 3 -10 0
-11 12 -13 0
1 10 13 0
-1 4 -7 0
6 -8 14 0
-8 11 -12 0
1 9 -12 0
-5 -6 14 0
-5 6 -11 0
4 9 10 0
-8 12 14 0
2 -12 14 0
7 -8 -11 0
6 -12 13 0
3 11 -12 0
-3 -4 6 0
-2 6 14 0